CMD:
./solvers/bin/cadical --plain --no-reduce -t 1600 ./data/cnfs//eijks208c/eijks208c.36.cnf

c --- [ banner ] -------------------------------------------------------------
c 
c CaDiCaL SAT Solver
c Copyright (c) 2016-2024
c A. Biere, M. Fleury, N. Froleyks, K. Fazekas, F. Pollitt, T. Faller
c JKU Linz, University of Freiburg, TU Wien
c 
c Version 2.1.3 5296d3d2a9bf48c154ab2acb5e44625776d821bf
c g++ (Gentoo 12.3.1_p20230526 p2) 12.3.1 20230526 -Wall -Wextra -O3 -DNDEBUG
c Sat Aug 9 07:26:21 PDT 2025 Linux cedar2.int.cedar.computecanada.ca 5.14.0-362.24.2.el9_3.x86_64 x86_64
c 
c --- [ limit ] --------------------------------------------------------------
c 
c setting time limit to 1600 seconds real time (due to '-t 1600')
c 
c --- [ parsing input ] ------------------------------------------------------
c 
c reading DIMACS file from './data/cnfs//eijks208c/eijks208c.36.cnf'
c opening file to read './data/cnfs//eijks208c/eijks208c.36.cnf'
c found 'p cnf 5906 16451' header
c parsed 16451 clauses in 0.00 seconds process time
c 
c --- [ options ] ------------------------------------------------------------
c 
c   --compact=false                (different from default 'true')
c   --decompose=false              (different from default 'true')
c   --deduplicate=false            (different from default 'true')
c   --elim=false                   (different from default 'true')
c   --probe=false                  (different from default 'true')
c   --reduce=false                 (different from default 'true')
c   --subsume=false                (different from default 'true')
c   --ternary=false                (different from default 'true')
c   --transred=false               (different from default 'true')
c   --vivify=false                 (different from default 'true')
c 
c --- [ solving ] ------------------------------------------------------------
c 
c time measured in process time since initialization
c 
c  seconds  reductions  redundant  irredundant
c         MB    restarts       trail     variables
c          level   conflicts       glue       remaining
c 
c *  0.00  6  0 0   0    0    0  0% 0 15566 5191 88%
c {  0.00  7  0 0   0    0    0  0% 0 15566 5191 88%
c i  0.01  7 153 0   4   92   89 55% 1 15566 5180 88%
c i  0.01  7 104 0  24  166  161 61% 2 15566 5103 86%
c i  0.01  7 93 0  32  199  191 60% 2 15566 5067 86%
c i  0.01  7 90 0  35  212  200 59% 2 15566 5046 85%
c i  0.01  7 63 0  75  376  357 58% 3 15566 5025 85%
c i  0.02  7 51 0  75  542  483 58% 2 15566 5024 85%
c i  0.02  7 44 0  91  760  683 59% 3 15566 4989 84%
c i  0.02  7 43 0  96  803  721 58% 2 15566 4957 84%
c i  0.02  7 42 0  98  841  758 58% 3 15566 4941 84%
c i  0.02  7 42 0 102  868  783 58% 3 15566 4934 84%
c i  0.02  7 42 0 102  877  791 58% 3 15566 4925 83%
c i  0.02  7 41 0 102  969  875 58% 2 15566 4901 83%
c }  0.02  7 41 0 103 1000  901 58% 3 15566 4887 83%
c [  0.02  7  0 0 103 1000  901  0% 0 15566 4887 83%
c O  0.02  7 91 0 103 1009  910 47% 3 15566 4887 83%
c i  0.02  7 75 0 103 1012  911 42% 2 15566 4879 83%
c i  0.03  7 69 0 103 1013  911 41% 2 15566 4872 82%
c i  0.03  7 60 0 103 1015  912 39% 2 15566 4855 82%
c 
c  seconds  reductions  redundant  irredundant
c         MB    restarts       trail     variables
c          level   conflicts       glue       remaining
c 
c i  0.03  7 50 0 103 1018  914 37% 2 15566 4832 82%
c i  0.03  7 47 0 103 1019  914 36% 2 15566 4819 82%
c i  0.03  7 45 0 103 1020  914 35% 2 15566 4796 81%
c i  0.03  7 43 0 103 1021  914 35% 1 15566 4773 81%
c i  0.03  7 39 0 103 1023  915 34% 1 15566 4756 81%
c i  0.03  7 25 0 103 1038  921 30% 1 15566 4704 80%
c i  0.03  7 23 0 103 1044  925 31% 1 15566 4701 80%
c i  0.06  7 203 0 104 2155 1945 83% 3 15566 4693 79%
c i  0.06  7 203 0 104 2156 1945 83% 3 15566 4680 79%
c i  0.06  7 157 0 104 2546 2309 79% 3 15566 4650 79%
c ]  0.08  7 126 0 104 3000 2732 76% 4 15566 4650 79%
c {  0.08  7 41 0 104 3000 2732 58% 3 15566 4650 79%
c F  0.08  7 40 0 107 3010 2742 58% 3 15566 4650 79%
c i  0.08  7 40 0 110 3020 2751 58% 3 15566 4644 79%
c i  0.08  7 40 0 113 3035 2764 58% 3 15566 4573 77%
c i  0.08  7 39 0 117 3099 2823 58% 3 15566 4545 77%
c i  0.08  7 39 0 117 3106 2826 58% 3 15566 4486 76%
c i  0.09  7 37 0 153 3245 2953 58% 3 15566 4477 76%
c i  0.09  7 35 0 190 3387 3084 57% 3 15566 4467 76%
c i  0.09  7 34 0 207 3469 3156 57% 3 15566 4461 76%
c 
c  seconds  reductions  redundant  irredundant
c         MB    restarts       trail     variables
c          level   conflicts       glue       remaining
c 
c i  0.10  7 33 0 227 3650 3323 58% 3 15566 4459 75%
c i  0.11  8 32 0 286 3911 3566 58% 3 15566 4429 75%
c i  0.11  8 32 0 286 3912 3566 58% 3 15566 4413 75%
c i  0.11  8 32 0 299 3964 3614 58% 3 15566 4403 75%
c i  0.12  8 30 0 355 4192 3816 58% 3 15566 4401 75%
c i  0.12  8 30 0 357 4198 3821 58% 3 15566 4389 74%
c i  0.13  8 28 0 411 4536 4119 57% 3 15566 4380 74%
c i  0.13  8 28 0 411 4552 4130 57% 3 15566 4365 74%
c i  0.13  8 28 0 411 4558 4135 57% 3 15566 4328 73%
c i  0.13  8 28 0 411 4590 4163 57% 3 15566 4236 72%
c i  0.13  8 28 0 411 4603 4172 57% 3 15566 4169 71%
c i  0.14  8 27 0 436 4719 4274 57% 3 15566 4123 70%
c i  0.14  8 27 0 436 4720 4274 57% 3 15566 4113 70%
c i  0.14  8 27 0 463 4830 4374 57% 3 15566 4106 70%
c i  0.14  8 27 0 480 4887 4426 57% 3 15566 4067 69%
c i  0.16  8 26 0 567 5374 4870 58% 3 15566 4057 69%
c i  0.17  8 25 0 634 5630 5111 58% 4 15566 4054 69%
c i  0.18  8 24 0 689 5934 5389 57% 4 15566 4049 69%
c #  0.18  8 24 0 707 6011 5463 57% 4 15566 4049 69%
c i  0.19  8 24 0 723 6067 5516 57% 4 15566 4025 68%
c 
c  seconds  reductions  redundant  irredundant
c         MB    restarts       trail     variables
c          level   conflicts       glue       remaining
c 
c i  0.19  8 24 0 723 6068 5516 57% 4 15566 4016 68%
c i  0.19  8 24 0 725 6080 5524 57% 4 15566 4007 68%
c i  0.22  8 22 0 927 6883 6281 57% 4 15566 3961 67%
c }  0.22  8 22 0 956 7006 6395 57% 4 15566 3961 67%
c [  0.22  8 126 0 956 7006 6395 76% 4 15566 3961 67%
c i  0.24  8 108 0 957 7367 6600 73% 4 15566 3904 66%
c i  0.25  8 97 0 957 7654 6781 71% 4 15566 3847 65%
c i  0.25  8 96 0 957 7677 6791 71% 4 15566 3834 65%
c i  0.25  8 95 0 957 7719 6813 70% 4 15566 3821 65%
c i  0.25  8 94 0 957 7721 6814 70% 4 15566 3747 63%
c i  0.25  8 94 0 957 7734 6819 70% 4 15566 3667 62%
c i  0.25  8 94 0 957 7742 6821 70% 4 15566 2952 50%
c i  0.25  8 93 0 957 7749 6825 70% 4 15566 2947 50%
c i  0.25  8 93 0 957 7752 6827 70% 4 15566 2942 50%
c i  0.25  8 93 0 957 7753 6827 70% 4 15566 1419 24%
c i  0.25  8 93 0 957 7756 6828 70% 4 15566 1386 23%
c ]  0.25  8 93 0 957 7758 6828 70% 4 15566 1235 21%
c 0  0.25  8 93 0 957 7758 6828 70% 4 15566 1235 21%
c 
c --- [ result ] -------------------------------------------------------------
c 
s UNSATISFIABLE
c 
c --- [ run-time profiling ] -------------------------------------------------
c 
c process time taken by individual solving procedures
c (percentage relative to process time for solving)
c 
c         0.25   99.96% search
c         0.17   66.21% unstable
c         0.08   33.46% stable
c         0.00    1.03% parse
c         0.00    0.27% lucky
c         0.00    0.00% simplify
c   =================================
c         0.25   98.83% solve
c 
c last line shows process time for solving
c (percentage relative to total process time)
c 
c --- [ statistics ] ---------------------------------------------------------
c 
c chronological:              2594        33.44 %  of conflicts
c conflicts:                  7758     30869.01    per second
c decisions:                 28602    113807.10    per second
c fixed:                      4671        79.09 %  of all variables
c learned:                    7500        96.67 %  per conflict
c learned_lits:             124977       100.00 %  learned literals
c minimized:                     0         0.00 %  learned literals
c shrunken:                  23712        18.97 %  learned literals
c minishrunken:              20566        16.46 %  learned literals
c otfs:                        146         1.88 %  of conflict
c propagations:            3569559        14.20 M  per second
c rephased:                      3      2586.00    interval
c restarts:                    957         8.11    interval
c stabilizing:                   2        35.43 %  of conflicts
c subsumed:                    608         2.64 %  of all clauses
c strengthened:                141         0.61 %  of all clauses
c 
c seconds are measured in process time for solving
c 
c --- [ resources ] ----------------------------------------------------------
c 
c total process time since initialization:         0.25    seconds
c total real time since initialization:            0.26    seconds
c maximum resident set size of process:           32.86    MB
c 
c --- [ shutting down ] ------------------------------------------------------
c 
c exit 20
